15
1 0 2
3 1 3
3 2 4
4 1 1
4 2 4
4 3 3
5 3 2
5 4 2
6 4 1
6 5 1
7 1 4
7 6 2
8 0 4
8 2 3
8 3 1
8 4 1
8 6 3
9 0 3
9 1 1
9 3 2
9 6 1
9 7 2
10 0 4
10 2 1
10 3 1
10 6 3
10 9 3
11 2 3
11 4 2
11 5 2
11 7 3
11 9 3
12 3 1
12 4 2
12 7 4
12 8 4
12 11 3
13 0 4
13 1 2
13 10 1
13 12 3
14 0 1
14 6 4
14 9 1
14 10 3
